Default variable names x1, x2 ... being created.
Default row names c1, c2 ... being created.
Tried aggregator 1 time.
Reduced MIP has 1256 rows, 100 columns, and 2560 nonzeros.
Reduced MIP has 100 binaries, 0 generals, 0 SOSs, and 0 indicators.
Presolve time = 0.01 sec. (2.66 ticks)
Found incumbent of value 0.000000 after 0.02 sec. (3.36 ticks)
Probing fixed 23 vars, tightened 0 bounds.
Probing time = 0.00 sec. (0.45 ticks)
Tried aggregator 1 time.
MIP Presolve eliminated 640 rows and 23 columns.
Reduced MIP has 616 rows, 77 columns, and 1280 nonzeros.
Reduced MIP has 77 binaries, 0 generals, 0 SOSs, and 0 indicators.
Presolve time = 0.00 sec. (1.44 ticks)
Probing time = 0.00 sec. (0.26 ticks)
Tried aggregator 1 time.
Reduced MIP has 616 rows, 77 columns, and 1280 nonzeros.
Reduced MIP has 77 binaries, 0 generals, 0 SOSs, and 0 indicators.
Presolve time = 0.00 sec. (1.23 ticks)
Probing time = 0.00 sec. (0.26 ticks)
Clique table members: 813.
MIP emphasis: balance optimality and feasibility.
MIP search method: dynamic search.
Parallel mode: deterministic, using up to 4 threads.
Root relaxation solution time = 0.00 sec. (2.29 ticks)

        Nodes                                         Cuts/
   Node  Left     Objective  IInf  Best Integer    Best Bound    ItCnt     Gap

*     0+    0                            0.0000       27.0000              --- 
      0     0       13.5000    77        0.0000       13.5000      126     --- 
*     0+    0                            1.0000       13.5000              --- 
      0     0       11.2745    73        1.0000     Cuts: 254      166     --- 
      0     0       10.9909    72        1.0000       Cuts: 2      177  999.09%
      0     0       10.9844    72        1.0000   ZeroHalf: 1      182  998.44%
      0     0       10.9829    73        1.0000   ZeroHalf: 1      183  998.29%
      0     0       10.9703    72        1.0000   ZeroHalf: 3      193  997.03%
      0     0       10.9663    72        1.0000   ZeroHalf: 1      199  996.63%
      0     0       10.9595    73        1.0000   ZeroHalf: 1      203  995.95%
      0     0       10.9406    72        1.0000   ZeroHalf: 3      213  994.06%
      0     0       10.9224    72        1.0000   ZeroHalf: 1      222  992.24%
      0     0       10.9045    72        1.0000       Cuts: 3      229  990.45%
      0     0       10.8841    72        1.0000   ZeroHalf: 1      241  988.41%
      0     0       10.8655    72        1.0000   ZeroHalf: 2      243  986.55%
      0     0       10.8570    72        1.0000   ZeroHalf: 1      247  985.70%
      0     0       10.8230    72        1.0000   ZeroHalf: 1      253  982.30%
      0     0       10.8226    73        1.0000   ZeroHalf: 2      260  982.26%
      0     0        cutoff              1.0000        1.0000      263    0.00%
Elapsed time = 0.15 sec. (101.23 ticks, tree = 0.00 MB, solutions = 2)

Clique cuts applied:  153
Zero-half cuts applied:  5
Gomory fractional cuts applied:  2

Root node processing (before b&c):
  Real time             =    0.15 sec. (101.24 ticks)
Parallel b&c, 4 threads:
  Real time             =    0.00 sec. (0.00 ticks)
  Sync time (average)   =    0.00 sec.
  Wait time (average)   =    0.00 sec.
                          ------------
Total (root+branch&cut) =    0.15 sec. (101.24 ticks)
Default variable names x1, x2 ... being created.
Default row names c1, c2 ... being created.
Tried aggregator 1 time.
Reduced MIP has 1256 rows, 100 columns, and 2560 nonzeros.
Reduced MIP has 100 binaries, 0 generals, 0 SOSs, and 0 indicators.
Presolve time = 0.00 sec. (2.66 ticks)
Found incumbent of value 0.000000 after 0.00 sec. (3.36 ticks)
Probing time = 0.00 sec. (0.30 ticks)
Tried aggregator 1 time.
Reduced MIP has 1256 rows, 100 columns, and 2560 nonzeros.
Reduced MIP has 100 binaries, 0 generals, 0 SOSs, and 0 indicators.
Presolve time = 0.00 sec. (2.66 ticks)
Probing time = 0.00 sec. (0.30 ticks)
Clique table members: 1255.
MIP emphasis: balance optimality and feasibility.
MIP search method: dynamic search.
Parallel mode: deterministic, using up to 4 threads.
Root relaxation solution time = 0.01 sec. (9.49 ticks)

        Nodes                                         Cuts/
   Node  Left     Objective  IInf  Best Integer    Best Bound    ItCnt     Gap

*     0+    0                            0.0000       50.0000              --- 
      0     0       35.0000   100        0.0000       35.0000      242     --- 
      0     0       33.6103    99        0.0000       Cuts: 3      311     --- 
      0     0       33.1133    98        0.0000      Fract: 2      354     --- 
      0     0       33.1031    98        0.0000   ZeroHalf: 1      363     --- 
*     0+    0                            2.0000       33.1031              --- 
      0     0       33.0717    98        2.0000   ZeroHalf: 4      391     --- 
      0     0       33.0669    98        2.0000   ZeroHalf: 2      396     --- 
*     0+    0                            3.0000       33.0669              --- 
      0     0       33.0559    97        3.0000   ZeroHalf: 3      406     --- 
      0     0       33.0506    98        3.0000   ZeroHalf: 2      415  887.50%
      0     0       33.0341    99        3.0000       Cuts: 2      428  887.50%
      0     2       33.0341    99        3.0000       21.0000      428  600.00%
Elapsed time = 0.22 sec. (154.95 ticks, tree = 0.00 MB, solutions = 3)
    643   332        4.5405    43        3.0000       13.0000    12297  333.33%

Zero-half cuts applied:  4
Lift and project cuts applied:  2
Gomory fractional cuts applied:  2

Root node processing (before b&c):
  Real time             =    0.22 sec. (154.41 ticks)
Parallel b&c, 4 threads:
  Real time             =    0.37 sec. (349.07 ticks)
  Sync time (average)   =    0.04 sec.
  Wait time (average)   =    0.04 sec.
                          ------------
Total (root+branch&cut) =    0.59 sec. (503.48 ticks)
